************************************************************************
file with basedata            : mm48_.bas
initial value random generator: 17548
************************************************************************
projects                      :  1
jobs (incl. supersource/sink ):  12
horizon                       :  86
RESOURCES
  - renewable                 :  2   R
  - nonrenewable              :  2   N
  - doubly constrained        :  0   D
************************************************************************
PROJECT INFORMATION:
pronr.  #jobs rel.date duedate tardcost  MPM-Time
    1     10      0       13        3       13
************************************************************************
PRECEDENCE RELATIONS:
jobnr.    #modes  #successors   successors
   1        1          3           2   3   4
   2        3          2           6  10
   3        3          2           5   8
   4        3          3           7   8  11
   5        3          1           9
   6        3          1          11
   7        3          2           9  10
   8        3          1           9
   9        3          1          12
  10        3          1          12
  11        3          1          12
  12        1          0        
************************************************************************
REQUESTS/DURATIONS:
jobnr. mode duration  R 1  R 2  N 1  N 2
------------------------------------------------------------------------
  1      1     0       0    0    0    0
  2      1     3      10    8    7    7
         2     8       6    6    7    6
         3    10       3    4    6    4
  3      1     7       7    3    7    5
         2     8       3    1    5    2
         3     8       5    1    1    3
  4      1     1       7    8   10    1
         2     2       3    6    9    1
         3     4       2    3    7    1
  5      1     1       6    5    4   10
         2     5       5    4    4    8
         3    10       5    3    3    5
  6      1     3       8    4    8    9
         2     6       7    3    5    7
         3     6       8    3    6    6
  7      1     5      10    9    4    7
         2    10       9    5    3    7
         3    10       9    5    4    6
  8      1     1       5    8   10    7
         2     6       3    7    9    5
         3    10       2    7    8    5
  9      1     5       6    4    8   10
         2     6       5    3    7    9
         3     9       5    3    5    9
 10      1     1       9   10    5    6
         2     8       9    7    5    6
         3    10       8    5    2    5
 11      1     5       1    4    3    9
         2     9       1    1    2    9
         3     9       1    1    3    8
 12      1     0       0    0    0    0
************************************************************************
RESOURCEAVAILABILITIES:
  R 1  R 2  N 1  N 2
   18   14   66   71
************************************************************************
